&CONTROL
    calculation = 'bands',
    prefix      = 'graphene',
    outdir      = './graphene.save',
    pseudo_dir  = '/root/Desktop/pseudo',
    verbosity   = 'high',
/

&SYSTEM
    ibrav     = 4,
    celldm(1) = 4.654,
    celldm(3) = 3.0,
    nat       = 2,
    ntyp      = 1,
    ecutwfc   = 20.0,
    ecutrho   = 200.0,
/

&ELECTRONS
    conv_thr    = 1.0d-8,
    mixing_beta = 0.7,
/

&CELL
/

ATOMIC_SPECIES
   C  12.0107  C.pz-vbc.UPF

ATOMIC_POSITIONS (angstrom)
   C  0.000000  0.000000  0.000000
   C  0.000000  1.420000  0.000000

K_POINTS (automatic)
   12 12 1 0 0 0

